Route #1: 1 13 14 8 2 9 15 16 3 4 10 18 17 29 33 28 22 32 50 49 31 40 56 69 74 94 82 91 95 84 75 71 83 70 63 57 64 51 41 42 52 43 34 30 35 36 37 24 23 11 5 12 19 25 26 20 6 7 21 27 39 38 47 48 55 62 73 81 93 100 90 72 68 61 54 46 45 44 60 66 59 53 58 65 76 85 96 92 86 77 87 78 88 79 67 80 89 99 98 97
Cost 44626
